Problem:    
Rows:       113
Columns:    45 (34 integer, 34 binary)
Non-zeros:  356
Status:     INTEGER OPTIMAL
Objective:  value = 10.011193 (MINimum)

   No.   Row name        Activity     Lower bound   Upper bound
------ ------------    ------------- ------------- -------------
     1 r.5                   10.0112             0               
     2 r.6                   10.0112      -992.047               
     3 r.7                   1010.01             0               
     4 r.8                  -989.989      -996.175               
     5 r.9                   10.0112             0               
     6 r.10                  10.0112        -997.1               
     7 r.11                  1010.01             0               
     8 r.12                 -993.814      -997.677               
     9 r.13                  1010.01             0               
    10 r.14                 -989.989      -996.358               
    11 r.15                  10.0112             0               
    12 r.16                 -994.882      -997.573               
    13 r.17                  10.0112             0               
    14 r.18                  10.0112      -998.242               
    15 r.19                  1010.01             0               
    16 r.20                 -996.137      -998.828               
    17 r.21                  10.0112             0               
    18 r.22                  4.95637      -999.814               
    19 r.23                  1010.01             0               
    20 r.24                 -998.827      -998.827               
    21 r.25                        1             1             = 
    22 r.26                        1             1             = 
    23 r.27                        1             1             = 
    24 r.28                        1             1             = 
    25 r.29                        1             1             = 
    26 r.30                     1000             2               
    27 r.31                    -1000         -1001               
    28 r.32                     2000        -997.1               
    29 r.33                        2             2               
    30 r.34                       -2         -1001               
    31 r.35                  -3.8253      -997.677               
    32 r.36                     1001             2               
    33 r.37                    -1001         -1001               
    34 r.38                     2000      -996.358               
    35 r.39                     1001             2               
    36 r.40                    -1001         -1001               
    37 r.41                  995.107      -997.573               
    38 r.42                     1000             2               
    39 r.43                    -1000         -1001               
    40 r.44                     2000      -998.242               
    41 r.45                        2             2               
    42 r.46                       -2         -1001               
    43 r.47                  -6.1481      -998.828               
    44 r.48                   7.3201      -992.047               
    45 r.49                  -992.68      -996.175               
    46 r.50                   7.3201      -992.047               
    47 r.51                  -992.68      -996.175               
    48 r.52                     1000             2               
    49 r.53                    -1000         -1001               
    50 r.54                     2000        7.9526               
    51 r.55                        2             2               
    52 r.56                       -2         -1001               
    53 r.57                   3.8253        3.8253               
    54 r.58                     1001             2               
    55 r.59                    -1001         -1001               
    56 r.60                     2000      -996.358               
    57 r.61                     1001             2               
    58 r.62                    -1001         -1001               
    59 r.63                  998.933      -997.573               
    60 r.64                     1000             2               
    61 r.65                    -1000         -1001               
    62 r.66                     2000      -998.242               
    63 r.67                        2             2               
    64 r.68                       -2         -1001               
    65 r.69                  -2.3228      -998.828               
    66 r.70                   7.3201        -997.1               
    67 r.71                 -996.505      -997.677               
    68 r.72                   7.3201        -997.1               
    69 r.73                 -996.505      -997.677               
    70 r.74                     1001             2               
    71 r.75                    -1001         -1001               
    72 r.76                     2000        7.9526               
    73 r.77                     1001             2               
    74 r.78                    -1001         -1001               
    75 r.79                  3004.89        3.8253               
    76 r.80                     1001             2               
    77 r.81                    -1001         -1001               
    78 r.82                     2000        2.8998               
    79 r.83                     1001             2               
    80 r.84                    -1001         -1001               
    81 r.85                  3001.07        2.3228               
    82 r.86                     1001             2               
    83 r.87                    -1001         -1001               
    84 r.88                     2000      -998.242               
    85 r.89                     1001             2               
    86 r.90                    -1001         -1001               
    87 r.91                  2998.74      -998.828               
    88 r.92                  -992.68      -996.358               
    89 r.93                 -997.573      -997.573               
    90 r.94                  -992.68      -996.358               
    91 r.95                 -997.573      -997.573               
    92 r.96                     1000             2               
    93 r.97                    -1000         -1001               
    94 r.98                     2000        7.9526               
    95 r.99                        2             2               
    96 r.100                      -2         -1001               
    97 r.101                  6.1481        3.8253               
    98 r.102                    1000             2               
    99 r.103                   -1000         -1001               
   100 r.104                    2000        2.8998               
   101 r.105                       2             2               
   102 r.106                      -2         -1001               
   103 r.107                  2.3228        2.3228               
   104 r.108                    1001             2               
   105 r.109                   -1001         -1001               
   106 r.110                    2000        3.6417               
   107 r.111                    1001             2               
   108 r.112                   -1001         -1001               
   109 r.113                 1001.26        2.4274               
   110 r.114                  7.3201      -998.242               
   111 r.115                -998.828      -998.828               
   112 r.116                  7.3201      -998.242               
   113 r.117                -998.828      -998.828               

   No. Column name       Activity     Lower bound   Upper bound
------ ------------    ------------- ------------- -------------
     1 tt                    10.0112             0               
     2 s_1_1        *              0             0             1 
     3 t_1_1                       0             0               
     4 s_2_1        *              1             0             1 
     5 t_2_1                       0             0               
     6 s_1_2        *              0             0             1 
     7 t_1_2                       0             0               
     8 s_2_2        *              1             0             1 
     9 t_2_2                  3.8253             0               
    10 s_1_3        *              1             0             1 
    11 t_1_3                       0             0               
    12 s_2_3        *              0             0             1 
    13 t_2_3                 1004.89             0               
    14 s_1_4        *              0             0             1 
    15 t_1_4                       0             0               
    16 s_2_4        *              1             0             1 
    17 t_2_4                  6.1481             0               
    18 s_1_5        *              0             0             1 
    19 t_1_5                  7.3201             0               
    20 s_2_5        *              1             0             1 
    21 t_2_5                  7.3201             0               
    22 r_1_1_2      *              1             0             1 
    23 u_1_1_2      *              0             0             1 
    24 r_2_1_2      *              0             0             1 
    25 u_2_1_2      *              0             0             1 
    26 r_1_1_3      *              1             0             1 
    27 u_1_1_3      *              0             0             1 
    28 r_2_1_3      *              1             0             1 
    29 u_2_1_3      *              0             0             1 
    30 r_1_1_4      *              1             0             1 
    31 u_1_1_4      *              0             0             1 
    32 r_2_1_4      *              0             0             1 
    33 u_2_1_4      *              0             0             1 
    34 r_1_2_3      *              1             0             1 
    35 u_1_2_3      *              0             0             1 
    36 r_2_2_3      *              1             0             1 
    37 u_2_2_3      *              0             0             1 
    38 r_1_2_4      *              1             0             1 
    39 u_1_2_4      *              0             0             1 
    40 r_2_2_4      *              0             0             1 
    41 u_2_2_4      *              0             0             1 
    42 r_1_3_4      *              1             0             1 
    43 u_1_3_4      *              0             0             1 
    44 r_2_3_4      *              1             0             1 
    45 u_2_3_4      *              0             0             1 

Integer feasibility conditions:

KKT.PE: max.abs.err = 0.00e+00 on row 0
        max.rel.err = 0.00e+00 on row 0
        High quality

KKT.PB: max.abs.err = 4.44e-16 on row 103
        max.rel.err = 1.34e-16 on row 103
        High quality

End of output
